83 40 146 78 180 12 178 87 164 23 26 174 129 168 49 0 155 199 125 161 31 104 96 166 93 16 89 139 138 97 169 48 69 152 88 10 167 109 22 41 172 184 21 192 110 102 57 127 28 190 196 198 107 128 35 175 158 74 66 131 197 6 170 60 111 73 194 100 189 120 7 65 37 185 148 33 80 179 119 137 51 45 145 124 108 133 156 193 79 75 126 160 134 71 56 30 77 98 44 165 32 67 13 186 64 173 159 85 95 188 142 63 149 58 84 17 5 39 82 2 115 101 8 9 141 19 24 113 163 81 182 103 105 114 11 27 46 132 181 20 55 150 94 147 130 162 25 86 112 54 177 116 91 140 47 143 29 1 99 118 50 191 18 195 36 34 61 135 144 117 4 176 123 52 59 43 92 3 154 42 70 121 122 187 72 38 90 53 76 62 153 15 151 157 183 106 68 14 171 136